Problem:    trasmissioni
Rows:       118
Columns:    109
Non-zeros:  319
Status:     OPTIMAL
Objective:  z = 0.69765625 (MINimum)

   No.   Row name   St   Activity     Lower bound   Upper bound    Marginal
------ ------------ -- ------------- ------------- ------------- -------------
     1 Time[1]      NU           490                         490  -0.000553977 
     2 Time[2]      NU           420                         420  -0.000454545 
     3 Time[3]      NU           460                         460  -0.000511364 
     4 Time[4]      NU           485                         485  -0.000553977 
     5 Time[5]      NU           400                         400  -0.000454545 
     6 Time[6]      NU           455                         455  -0.000511364 
     7 Time[7]      NU           480                         480  -0.000553977 
     8 Time[8]      NU           380                         380  -0.000454545 
     9 Time[9]      NU           450                         450  -0.000511364 
    10 Data0[1]     NS            12            12             =    0.00284091 
    11 Data0[2]     NS            26            26             =    0.00284091 
    12 Data0[3]     NS            56            56             =    0.00284091 
    13 Data0[4]     NS             8             8             =    0.00284091 
    14 Data0[5]     NS            34            34             =    0.00284091 
    15 Data0[6]     NS            50            50             =    0.00284091 
    16 Data[2,1]    NS             6             6             =    0.00284091 
    17 Data[2,2]    NS             8             8             =    0.00284091 
    18 Data[2,3]    NS            34            34             =    0.00284091 
    19 Data[2,4]    NS             4             4             =    0.00284091 
    20 Data[2,5]    NS            19            19             =    0.00284091 
    21 Data[2,6]    NS            23            23             =    0.00284091 
    22 Data[3,1]    NS             7             7             =    0.00284091 
    23 Data[3,2]    NS            23            23             =    0.00284091 
    24 Data[3,3]    NS            38            38             =    0.00284091 
    25 Data[3,4]    NS             5             5             =    0.00284091 
    26 Data[3,5]    NS            21            21             =    0.00284091 
    27 Data[3,6]    NS            19            19             =    0.00284091 
    28 Data[4,1]    NS             3             3             =    0.00284091 
    29 Data[4,2]    NS            31            31             =    0.00284091 
    30 Data[4,3]    NS            35            35             =    0.00284091 
    31 Data[4,4]    NS             6             6             =    0.00284091 
    32 Data[4,5]    NS            15            15             =    0.00284091 
    33 Data[4,6]    NS            18            18             =    0.00284091 
    34 Data[5,1]    NS             3             3             =    0.00284091 
    35 Data[5,2]    NS            14            14             =    0.00284091 
    36 Data[5,3]    NS            37            37             =    0.00284091 
    37 Data[5,4]    NS             7             7             =    0.00284091 
    38 Data[5,5]    NS            14            14             =    0.00284091 
    39 Data[5,6]    NS            23            23             =    0.00284091 
    40 Data[6,1]    NS             8             8             =    0.00284091 
    41 Data[6,2]    NS             8             8             =    0.00284091 
    42 Data[6,3]    NS            35            35             =    0.00284091 
    43 Data[6,4]    NS             6             6             =    0.00284091 
    44 Data[6,5]    NS            14            14             =    0.00284091 
    45 Data[6,6]    NS            24            24             =    0.00284091 
    46 Data[7,1]    NS             1             1             =    0.00284091 
    47 Data[7,2]    NS            10            10             =    0.00284091 
    48 Data[7,3]    NS            31            31             =    0.00284091 
    49 Data[7,4]    NS             5             5             =    0.00284091 
    50 Data[7,5]    NS            14            14             =    0.00284091 
    51 Data[7,6]    NS            25            25             =    0.00284091 
    52 Data[8,1]    NS             3             3             =    0.00284091 
    53 Data[8,2]    NS            20            20             =    0.00284091 
    54 Data[8,3]    NS            40            40             =    0.00284091 
    55 Data[8,4]    NS             4             4             =    0.00284091 
    56 Data[8,5]    NS            18            18             =    0.00284091 
    57 Data[8,6]    NS            20            20             =    0.00284091 
    58 Data[9,1]    NS             4             4             =    0.00284091 
    59 Data[9,2]    NS            13            13             =    0.00284091 
    60 Data[9,3]    NS            28            28             =    0.00284091 
    61 Data[9,4]    NS             5             5             =    0.00284091 
    62 Data[9,5]    NS            19            19             =    0.00284091 
    63 Data[9,6]    NS            13            13             =    0.00284091 
    64 z            B       0.697656                             
    65 MinMax[1,1]  B       0.697656            -0               
    66 MinMax[1,2]  B       0.697656            -0               
    67 MinMax[1,3]  B       0.137656            -0               
    68 MinMax[1,4]  B       0.697656            -0               
    69 MinMax[1,5]  B       0.697656            -0               
    70 MinMax[1,6]  B       0.267031            -0               
    71 MinMax[2,1]  B       0.697656            -0               
    72 MinMax[2,2]  B       0.697656            -0               
    73 MinMax[2,3]  NL             0            -0                       < eps
    74 MinMax[2,4]  B       0.697656            -0               
    75 MinMax[2,5]  B       0.697656            -0               
    76 MinMax[2,6]  B       0.104102            -0               
    77 MinMax[3,1]  B        0.59375            -0               
    78 MinMax[3,2]  B       0.697656            -0               
    79 MinMax[3,3]  NL             0            -0                       < eps
    80 MinMax[3,4]  B       0.697656            -0               
    81 MinMax[3,5]  B       0.326719            -0               
    82 MinMax[3,6]  NL             0            -0                       < eps
    83 MinMax[4,1]  B            0.5            -0               
    84 MinMax[4,2]  B        0.18099            -0               
    85 MinMax[4,3]  NL             0            -0                       < eps
    86 MinMax[4,4]  B       0.697656            -0               
    87 MinMax[4,5]  B       0.697656            -0               
    88 MinMax[4,6]  B      0.0253516            -0               
    89 MinMax[5,1]  B        0.40625            -0               
    90 MinMax[5,2]  NL             0            -0                       < eps
    91 MinMax[5,3]  NL             0            -0                       < eps
    92 MinMax[5,4]  B            0.5            -0               
    93 MinMax[5,5]  B          0.454            -0               
    94 MinMax[5,6]  NL             0            -0                       < eps
    95 MinMax[6,1]  B        0.15625            -0               
    96 MinMax[6,2]  NL             0            -0                       < eps
    97 MinMax[6,3]  NL             0            -0                       < eps
    98 MinMax[6,4]  B            0.3            -0               
    99 MinMax[6,5]  B          0.174            -0               
   100 MinMax[6,6]  B        0.18625            -0               
   101 MinMax[7,1]  B          0.125            -0               
   102 MinMax[7,2]  B           0.32            -0               
   103 MinMax[7,3]  NL             0            -0                       < eps
   104 MinMax[7,4]  B       0.133333            -0               
   105 MinMax[7,5]  B           0.36            -0               
   106 MinMax[7,6]  NL             0            -0                       < eps
   107 MinMax[8,1]  B        0.03125            -0               
   108 MinMax[8,2]  NL             0            -0                       < eps
   109 MinMax[8,3]  NL             0            -0                       < eps
   110 MinMax[8,4]  NL             0            -0                       < eps
   111 MinMax[8,5]  NL             0            -0                       < eps
   112 MinMax[8,6]  NL             0            -0                       < eps
   113 MinMax[9,1]  NL             0            -0                   0.0909091 
   114 MinMax[9,2]  NL             0            -0                    0.170455 
   115 MinMax[9,3]  NL             0            -0                    0.284091 
   116 MinMax[9,4]  NL             0            -0                   0.0852273 
   117 MinMax[9,5]  NL             0            -0                    0.142045 
   118 MinMax[9,6]  NL             0            -0                    0.227273 

   No. Column name  St   Activity     Lower bound   Upper bound    Marginal
------ ------------ -- ------------- ------------- ------------- -------------
     1 x[1,1]       B        61.5385             0               
     2 x[1,2]       B        133.333             0               
     3 x[1,3]       NL             0             0                       < eps
     4 x[1,4]       B        41.0256             0               
     5 x[1,5]       B        174.359             0               
     6 x[1,6]       B        79.7436             0               
     7 x[2,1]       B           37.5             0               
     8 x[2,2]       B             50             0               
     9 x[2,3]       B        126.465             0               
    10 x[2,4]       B             25             0               
    11 x[2,5]       B         118.75             0               
    12 x[2,6]       B        62.2852             0               
    13 x[3,1]       B        20.4167             0               
    14 x[3,2]       B        127.778             0               
    15 x[3,3]       B        211.111             0               
    16 x[3,4]       B        27.7778             0               
    17 x[3,5]       B        13.6285             0               
    18 x[3,6]       B        59.2882             0               
    19 x[4,1]       NL             0             0                       < eps
    20 x[4,2]       NL             0             0                       < eps
    21 x[4,3]       B        179.487             0               
    22 x[4,4]       B        30.7692             0               
    23 x[4,5]       B        172.035             0               
    24 x[4,6]       B        102.708             0               
    25 x[5,1]       NL             0             0                       < eps
    26 x[5,2]       B        19.6289             0               
    27 x[5,3]       B         231.25             0               
    28 x[5,4]       B        6.68945             0               
    29 x[5,5]       B        11.3574             0               
    30 x[5,6]       B        131.074             0               
    31 x[6,1]       NL             0             0                       < eps
    32 x[6,2]       B        44.4444             0               
    33 x[6,3]       B        194.444             0               
    34 x[6,4]       NL             0             0                       < eps
    35 x[6,5]       NL             0             0                       < eps
    36 x[6,6]       B        216.111             0               
    37 x[7,1]       NL             0             0                       < eps
    38 x[7,2]       B        149.744             0               
    39 x[7,3]       B        158.974             0               
    40 x[7,4]       NL             0             0                       < eps
    41 x[7,5]       B        119.487             0               
    42 x[7,6]       B        51.7949             0               
    43 x[8,1]       NL             0             0                       < eps
    44 x[8,2]       B              5             0               
    45 x[8,3]       B            250             0               
    46 x[8,4]       NL             0             0                       < eps
    47 x[8,5]       NL             0             0                       < eps
    48 x[8,6]       B            125             0               
    49 x[9,1]       B        16.6667             0               
    50 x[9,2]       B        72.2222             0               
    51 x[9,3]       B        155.556             0               
    52 x[9,4]       B        27.7778             0               
    53 x[9,5]       B        105.556             0               
    54 x[9,6]       B        72.2222             0               
    55 d[1,1]       NL             0             0                       < eps
    56 d[1,2]       NL             0             0                       < eps
    57 d[1,3]       B             56             0               
    58 d[1,4]       NL             0             0                       < eps
    59 d[1,5]       NL             0             0                       < eps
    60 d[1,6]       B          34.45             0               
    61 d[2,1]       NL             0             0                       < eps
    62 d[2,2]       NL             0             0                       < eps
    63 d[2,3]       B        69.7656             0               
    64 d[2,4]       NL             0             0                       < eps
    65 d[2,5]       NL             0             0                       < eps
    66 d[2,6]       B        47.4844             0               
    67 d[3,1]       B          3.325             0               
    68 d[3,2]       NL             0             0                       < eps
    69 d[3,3]       B        69.7656             0               
    70 d[3,4]       NL             0             0                       < eps
    71 d[3,5]       B        18.5469             0               
    72 d[3,6]       B        55.8125             0               
    73 d[4,1]       B          6.325             0               
    74 d[4,2]       B             31             0               
    75 d[4,3]       B        69.7656             0               
    76 d[4,4]       NL             0             0                       < eps
    77 d[4,5]       NL             0             0                       < eps
    78 d[4,6]       B        53.7844             0               
    79 d[5,1]       B          9.325             0               
    80 d[5,2]       B        41.8594             0               
    81 d[5,3]       B        69.7656             0               
    82 d[5,4]       B        5.92969             0               
    83 d[5,5]       B        12.1828             0               
    84 d[5,6]       B        55.8125             0               
    85 d[6,1]       B         17.325             0               
    86 d[6,2]       B        41.8594             0               
    87 d[6,3]       B        69.7656             0               
    88 d[6,4]       B        11.9297             0               
    89 d[6,5]       B        26.1828             0               
    90 d[6,6]       B        40.9125             0               
    91 d[7,1]       B         18.325             0               
    92 d[7,2]       B        22.6594             0               
    93 d[7,3]       B        69.7656             0               
    94 d[7,4]       B        16.9297             0               
    95 d[7,5]       B        16.8828             0               
    96 d[7,6]       B        55.8125             0               
    97 d[8,1]       B         21.325             0               
    98 d[8,2]       B        41.8594             0               
    99 d[8,3]       B        69.7656             0               
   100 d[8,4]       B        20.9297             0               
   101 d[8,5]       B        34.8828             0               
   102 d[8,6]       B        55.8125             0               
   103 d[9,1]       B         22.325             0               
   104 d[9,2]       B        41.8594             0               
   105 d[9,3]       B        69.7656             0               
   106 d[9,4]       B        20.9297             0               
   107 d[9,5]       B        34.8828             0               
   108 d[9,6]       B        55.8125             0               
   109 maxRatio     B       0.697656                             

Karush-Kuhn-Tucker optimality conditions:

KKT.PE: max.abs.err = 3.98e-13 on row 8
        max.rel.err = 9.19e-16 on row 38
        High quality

KKT.PB: max.abs.err = 0.00e+00 on row 0
        max.rel.err = 0.00e+00 on row 0
        High quality

KKT.DE: max.abs.err = 1.82e-17 on column 88
        max.rel.err = 1.81e-17 on column 88
        High quality

KKT.DB: max.abs.err = 2.08e-15 on row 112
        max.rel.err = 2.08e-15 on row 112
        High quality

End of output
